
;this file is automatically generated: Mon Oct 04 22:33:15 IST 2021

;declarations generated

(declare-fun type_af67aae8_afe5_40eb_a736_e5bca8f5edc3_Class10 ( Int) Bool)
(declare-fun type_af67aae8_afe5_40eb_a736_e5bca8f5edc3_Class18 ( Int) Bool)
(declare-fun type_af67aae8_afe5_40eb_a736_e5bca8f5edc3_Class17 ( Int) Bool)
(declare-fun type_af67aae8_afe5_40eb_a736_e5bca8f5edc3_Class16 ( Int) Bool)
(declare-fun type_af67aae8_afe5_40eb_a736_e5bca8f5edc3_Class15 ( Int) Bool)
(declare-fun type_af67aae8_afe5_40eb_a736_e5bca8f5edc3_Class14 ( Int) Bool)
(declare-fun type_af67aae8_afe5_40eb_a736_e5bca8f5edc3_Class13 ( Int) Bool)
(declare-fun type_af67aae8_afe5_40eb_a736_e5bca8f5edc3_Class12 ( Int) Bool)
(declare-fun type_af67aae8_afe5_40eb_a736_e5bca8f5edc3_Class11 ( Int) Bool)
(declare-fun type_af67aae8_afe5_40eb_a736_e5bca8f5edc3_Class19 ( Int) Bool)
(declare-fun type_af67aae8_afe5_40eb_a736_e5bca8f5edc3_Class21 ( Int) Bool)
(declare-fun type_af67aae8_afe5_40eb_a736_e5bca8f5edc3_Class20 ( Int) Bool)
(declare-fun type_af67aae8_afe5_40eb_a736_e5bca8f5edc3_Class29 ( Int) Bool)
(declare-fun type_af67aae8_afe5_40eb_a736_e5bca8f5edc3_Class28 ( Int) Bool)
(declare-fun type_af67aae8_afe5_40eb_a736_e5bca8f5edc3_Class27 ( Int) Bool)
(declare-fun type_af67aae8_afe5_40eb_a736_e5bca8f5edc3_Class26 ( Int) Bool)
(declare-fun type_af67aae8_afe5_40eb_a736_e5bca8f5edc3_Class25 ( Int) Bool)
(declare-fun type_af67aae8_afe5_40eb_a736_e5bca8f5edc3_Class24 ( Int) Bool)
(declare-fun type_af67aae8_afe5_40eb_a736_e5bca8f5edc3_Class23 ( Int) Bool)
(declare-fun type_af67aae8_afe5_40eb_a736_e5bca8f5edc3_Class22 ( Int) Bool)
(declare-fun oclExcludes ( Int Int) Bool)
(declare-fun class8_Class8IntAttr4 ( Int) Int)
(declare-fun class8_Class8IntAttr3 ( Int) Int)
(declare-fun Cardinality ( Int) Int)
(declare-fun type_af67aae8_afe5_40eb_a736_e5bca8f5edc3_Class7 ( Int) Bool)
(declare-fun type_af67aae8_afe5_40eb_a736_e5bca8f5edc3_Class6 ( Int) Bool)
(declare-fun type_af67aae8_afe5_40eb_a736_e5bca8f5edc3_Class5 ( Int) Bool)
(declare-fun type_af67aae8_afe5_40eb_a736_e5bca8f5edc3_Class4 ( Int) Bool)
(declare-fun type_af67aae8_afe5_40eb_a736_e5bca8f5edc3_Class3 ( Int) Bool)
(declare-fun type_af67aae8_afe5_40eb_a736_e5bca8f5edc3_Class2 ( Int) Bool)
(declare-fun type_af67aae8_afe5_40eb_a736_e5bca8f5edc3_Class1 ( Int) Bool)
(declare-fun type_af67aae8_afe5_40eb_a736_e5bca8f5edc3_Class0 ( Int) Bool)
(declare-fun type_af67aae8_afe5_40eb_a736_e5bca8f5edc3_Class9 ( Int) Bool)
(declare-fun type_af67aae8_afe5_40eb_a736_e5bca8f5edc3_Class8 ( Int) Bool)
(declare-fun type_af67aae8_afe5_40eb_a736_e5bca8f5edc3_Class54 ( Int) Bool)
(declare-fun type_af67aae8_afe5_40eb_a736_e5bca8f5edc3_Class53 ( Int) Bool)
(declare-fun type_af67aae8_afe5_40eb_a736_e5bca8f5edc3_Class52 ( Int) Bool)
(declare-fun type_af67aae8_afe5_40eb_a736_e5bca8f5edc3_Class51 ( Int) Bool)
(declare-fun type_af67aae8_afe5_40eb_a736_e5bca8f5edc3_Class50 ( Int) Bool)
(declare-fun type_af67aae8_afe5_40eb_a736_e5bca8f5edc3_Class55 ( Int) Bool)
(declare-fun type_af67aae8_afe5_40eb_a736_e5bca8f5edc3_Class32 ( Int) Bool)
(declare-fun type_af67aae8_afe5_40eb_a736_e5bca8f5edc3_Class31 ( Int) Bool)
(declare-fun type_af67aae8_afe5_40eb_a736_e5bca8f5edc3_Class30 ( Int) Bool)
(declare-fun obj_49fa7892_48ea_42dd_81f1_ce54fd9bc024 ( Int) Int)
(declare-fun type_af67aae8_afe5_40eb_a736_e5bca8f5edc3_Class39 ( Int) Bool)
(declare-fun type_af67aae8_afe5_40eb_a736_e5bca8f5edc3_Class38 ( Int) Bool)
(declare-fun type_af67aae8_afe5_40eb_a736_e5bca8f5edc3_Class37 ( Int) Bool)
(declare-fun type_af67aae8_afe5_40eb_a736_e5bca8f5edc3_Class36 ( Int) Bool)
(declare-fun type_af67aae8_afe5_40eb_a736_e5bca8f5edc3_Class35 ( Int) Bool)
(declare-fun type_af67aae8_afe5_40eb_a736_e5bca8f5edc3_Class34 ( Int) Bool)
(declare-fun type_af67aae8_afe5_40eb_a736_e5bca8f5edc3_Class33 ( Int) Bool)
(declare-fun type_af67aae8_afe5_40eb_a736_e5bca8f5edc3_Class43 ( Int) Bool)
(declare-fun type_af67aae8_afe5_40eb_a736_e5bca8f5edc3_Class42 ( Int) Bool)
(declare-fun type_af67aae8_afe5_40eb_a736_e5bca8f5edc3_Class41 ( Int) Bool)
(declare-fun type_af67aae8_afe5_40eb_a736_e5bca8f5edc3_Class40 ( Int) Bool)
(declare-fun type_af67aae8_afe5_40eb_a736_e5bca8f5edc3_Class49 ( Int) Bool)
(declare-fun type_af67aae8_afe5_40eb_a736_e5bca8f5edc3_Class48 ( Int) Bool)
(declare-fun type_af67aae8_afe5_40eb_a736_e5bca8f5edc3_Class47 ( Int) Bool)
(declare-fun type_af67aae8_afe5_40eb_a736_e5bca8f5edc3_Class46 ( Int) Bool)
(declare-fun type_af67aae8_afe5_40eb_a736_e5bca8f5edc3_Class45 ( Int) Bool)
(declare-fun type_af67aae8_afe5_40eb_a736_e5bca8f5edc3_Class44 ( Int) Bool)
(declare-fun oclSelect ( Int Bool) Int)
(declare-fun Enum0 ( Int) Int)
(declare-fun Enum1 ( Int) Int)
(declare-fun Enum2 ( Int) Int)
(declare-fun container_ ( Int) Int)
(declare-fun oclIncludes ( Int Int) Bool)
(declare-fun ObjAt ( Int Int) Int)

;formula(s) generated
(assert (! (forall ((c8_2 Int)(c8_1 Int)) (=> (and (and ( type_af67aae8_afe5_40eb_a736_e5bca8f5edc3_Class8 c8_1 )  ( type_af67aae8_afe5_40eb_a736_e5bca8f5edc3_Class39 c8_1 ) ) (and ( type_af67aae8_afe5_40eb_a736_e5bca8f5edc3_Class8 c8_2 )  ( type_af67aae8_afe5_40eb_a736_e5bca8f5edc3_Class39 c8_2 ) )) (= ( class8_Class8IntAttr4 ( obj_49fa7892_48ea_42dd_81f1_ce54fd9bc024 c8_1 )  )  ( class8_Class8IntAttr3 ( obj_49fa7892_48ea_42dd_81f1_ce54fd9bc024 c8_2 )  ) ))):named l0))
(assert (! (exists ((c1 Int)) (and (and ( type_af67aae8_afe5_40eb_a736_e5bca8f5edc3_Class8 c1 )  ( type_af67aae8_afe5_40eb_a736_e5bca8f5edc3_Class39 c1 ) ) (<= ( class8_Class8IntAttr4 ( obj_49fa7892_48ea_42dd_81f1_ce54fd9bc024 c1 )  )  18))):named l1))
(assert (! (exists ((c1 Int)) (and (and ( type_af67aae8_afe5_40eb_a736_e5bca8f5edc3_Class8 c1 )  ( type_af67aae8_afe5_40eb_a736_e5bca8f5edc3_Class39 c1 ) ) (> ( class8_Class8IntAttr4 ( obj_49fa7892_48ea_42dd_81f1_ce54fd9bc024 c1 )  )  1))):named l2))
(assert (! (forall ((c8_2 Int)(c8_1 Int)) (=> (and (and ( type_af67aae8_afe5_40eb_a736_e5bca8f5edc3_Class8 c8_1 )  ( type_af67aae8_afe5_40eb_a736_e5bca8f5edc3_Class39 c8_1 ) ) (and ( type_af67aae8_afe5_40eb_a736_e5bca8f5edc3_Class8 c8_2 )  ( type_af67aae8_afe5_40eb_a736_e5bca8f5edc3_Class39 c8_2 ) )) (<= ( class8_Class8IntAttr3 ( obj_49fa7892_48ea_42dd_81f1_ce54fd9bc024 c8_1 )  )  ( class8_Class8IntAttr4 ( obj_49fa7892_48ea_42dd_81f1_ce54fd9bc024 c8_2 )  ) ))):named l3))
(assert (! (exists ((o Int)) ( type_af67aae8_afe5_40eb_a736_e5bca8f5edc3_Class0 ( obj_49fa7892_48ea_42dd_81f1_ce54fd9bc024 o )  ) ):named c0))
(assert (! (exists ((o Int)) (and (and (and (and (and ( type_af67aae8_afe5_40eb_a736_e5bca8f5edc3_Class1 ( obj_49fa7892_48ea_42dd_81f1_ce54fd9bc024 o )  )  ( type_af67aae8_afe5_40eb_a736_e5bca8f5edc3_Class45 ( obj_49fa7892_48ea_42dd_81f1_ce54fd9bc024 o )  ) ) ( type_af67aae8_afe5_40eb_a736_e5bca8f5edc3_Class12 ( obj_49fa7892_48ea_42dd_81f1_ce54fd9bc024 o )  ) ) ( type_af67aae8_afe5_40eb_a736_e5bca8f5edc3_Class33 ( obj_49fa7892_48ea_42dd_81f1_ce54fd9bc024 o )  ) ) ( type_af67aae8_afe5_40eb_a736_e5bca8f5edc3_Class22 ( obj_49fa7892_48ea_42dd_81f1_ce54fd9bc024 o )  ) ) ( type_af67aae8_afe5_40eb_a736_e5bca8f5edc3_Class39 ( obj_49fa7892_48ea_42dd_81f1_ce54fd9bc024 o )  ) )):named c1))
(assert (! (exists ((o Int)) (and (and (and (and (and (and (and (and (and ( type_af67aae8_afe5_40eb_a736_e5bca8f5edc3_Class10 ( obj_49fa7892_48ea_42dd_81f1_ce54fd9bc024 o )  )  ( type_af67aae8_afe5_40eb_a736_e5bca8f5edc3_Class45 ( obj_49fa7892_48ea_42dd_81f1_ce54fd9bc024 o )  ) ) ( type_af67aae8_afe5_40eb_a736_e5bca8f5edc3_Class12 ( obj_49fa7892_48ea_42dd_81f1_ce54fd9bc024 o )  ) ) ( type_af67aae8_afe5_40eb_a736_e5bca8f5edc3_Class55 ( obj_49fa7892_48ea_42dd_81f1_ce54fd9bc024 o )  ) ) ( type_af67aae8_afe5_40eb_a736_e5bca8f5edc3_Class33 ( obj_49fa7892_48ea_42dd_81f1_ce54fd9bc024 o )  ) ) ( type_af67aae8_afe5_40eb_a736_e5bca8f5edc3_Class22 ( obj_49fa7892_48ea_42dd_81f1_ce54fd9bc024 o )  ) ) ( type_af67aae8_afe5_40eb_a736_e5bca8f5edc3_Class29 ( obj_49fa7892_48ea_42dd_81f1_ce54fd9bc024 o )  ) ) ( type_af67aae8_afe5_40eb_a736_e5bca8f5edc3_Class39 ( obj_49fa7892_48ea_42dd_81f1_ce54fd9bc024 o )  ) ) ( type_af67aae8_afe5_40eb_a736_e5bca8f5edc3_Class50 ( obj_49fa7892_48ea_42dd_81f1_ce54fd9bc024 o )  ) ) ( type_af67aae8_afe5_40eb_a736_e5bca8f5edc3_Class41 ( obj_49fa7892_48ea_42dd_81f1_ce54fd9bc024 o )  ) )):named c2))
(assert (! (exists ((o Int)) ( type_af67aae8_afe5_40eb_a736_e5bca8f5edc3_Class11 ( obj_49fa7892_48ea_42dd_81f1_ce54fd9bc024 o )  ) ):named c3))
(assert (! (exists ((o Int)) (and (and (and ( type_af67aae8_afe5_40eb_a736_e5bca8f5edc3_Class12 ( obj_49fa7892_48ea_42dd_81f1_ce54fd9bc024 o )  )  ( type_af67aae8_afe5_40eb_a736_e5bca8f5edc3_Class33 ( obj_49fa7892_48ea_42dd_81f1_ce54fd9bc024 o )  ) ) ( type_af67aae8_afe5_40eb_a736_e5bca8f5edc3_Class22 ( obj_49fa7892_48ea_42dd_81f1_ce54fd9bc024 o )  ) ) ( type_af67aae8_afe5_40eb_a736_e5bca8f5edc3_Class39 ( obj_49fa7892_48ea_42dd_81f1_ce54fd9bc024 o )  ) )):named c4))
(assert (! (exists ((o Int)) (and (and (and (and (and (and (and (and (and ( type_af67aae8_afe5_40eb_a736_e5bca8f5edc3_Class13 ( obj_49fa7892_48ea_42dd_81f1_ce54fd9bc024 o )  )  ( type_af67aae8_afe5_40eb_a736_e5bca8f5edc3_Class45 ( obj_49fa7892_48ea_42dd_81f1_ce54fd9bc024 o )  ) ) ( type_af67aae8_afe5_40eb_a736_e5bca8f5edc3_Class12 ( obj_49fa7892_48ea_42dd_81f1_ce54fd9bc024 o )  ) ) ( type_af67aae8_afe5_40eb_a736_e5bca8f5edc3_Class55 ( obj_49fa7892_48ea_42dd_81f1_ce54fd9bc024 o )  ) ) ( type_af67aae8_afe5_40eb_a736_e5bca8f5edc3_Class33 ( obj_49fa7892_48ea_42dd_81f1_ce54fd9bc024 o )  ) ) ( type_af67aae8_afe5_40eb_a736_e5bca8f5edc3_Class22 ( obj_49fa7892_48ea_42dd_81f1_ce54fd9bc024 o )  ) ) ( type_af67aae8_afe5_40eb_a736_e5bca8f5edc3_Class29 ( obj_49fa7892_48ea_42dd_81f1_ce54fd9bc024 o )  ) ) ( type_af67aae8_afe5_40eb_a736_e5bca8f5edc3_Class39 ( obj_49fa7892_48ea_42dd_81f1_ce54fd9bc024 o )  ) ) ( type_af67aae8_afe5_40eb_a736_e5bca8f5edc3_Class50 ( obj_49fa7892_48ea_42dd_81f1_ce54fd9bc024 o )  ) ) ( type_af67aae8_afe5_40eb_a736_e5bca8f5edc3_Class41 ( obj_49fa7892_48ea_42dd_81f1_ce54fd9bc024 o )  ) )):named c5))
(assert (! (exists ((o Int)) (and (and (and (and (and (and (and (and (and ( type_af67aae8_afe5_40eb_a736_e5bca8f5edc3_Class14 ( obj_49fa7892_48ea_42dd_81f1_ce54fd9bc024 o )  )  ( type_af67aae8_afe5_40eb_a736_e5bca8f5edc3_Class45 ( obj_49fa7892_48ea_42dd_81f1_ce54fd9bc024 o )  ) ) ( type_af67aae8_afe5_40eb_a736_e5bca8f5edc3_Class12 ( obj_49fa7892_48ea_42dd_81f1_ce54fd9bc024 o )  ) ) ( type_af67aae8_afe5_40eb_a736_e5bca8f5edc3_Class55 ( obj_49fa7892_48ea_42dd_81f1_ce54fd9bc024 o )  ) ) ( type_af67aae8_afe5_40eb_a736_e5bca8f5edc3_Class33 ( obj_49fa7892_48ea_42dd_81f1_ce54fd9bc024 o )  ) ) ( type_af67aae8_afe5_40eb_a736_e5bca8f5edc3_Class22 ( obj_49fa7892_48ea_42dd_81f1_ce54fd9bc024 o )  ) ) ( type_af67aae8_afe5_40eb_a736_e5bca8f5edc3_Class29 ( obj_49fa7892_48ea_42dd_81f1_ce54fd9bc024 o )  ) ) ( type_af67aae8_afe5_40eb_a736_e5bca8f5edc3_Class39 ( obj_49fa7892_48ea_42dd_81f1_ce54fd9bc024 o )  ) ) ( type_af67aae8_afe5_40eb_a736_e5bca8f5edc3_Class50 ( obj_49fa7892_48ea_42dd_81f1_ce54fd9bc024 o )  ) ) ( type_af67aae8_afe5_40eb_a736_e5bca8f5edc3_Class41 ( obj_49fa7892_48ea_42dd_81f1_ce54fd9bc024 o )  ) )):named c6))
(assert (! (exists ((o Int)) ( type_af67aae8_afe5_40eb_a736_e5bca8f5edc3_Class15 ( obj_49fa7892_48ea_42dd_81f1_ce54fd9bc024 o )  ) ):named c7))
(assert (! (exists ((o Int)) (and (and (and (and (and ( type_af67aae8_afe5_40eb_a736_e5bca8f5edc3_Class16 ( obj_49fa7892_48ea_42dd_81f1_ce54fd9bc024 o )  )  ( type_af67aae8_afe5_40eb_a736_e5bca8f5edc3_Class45 ( obj_49fa7892_48ea_42dd_81f1_ce54fd9bc024 o )  ) ) ( type_af67aae8_afe5_40eb_a736_e5bca8f5edc3_Class12 ( obj_49fa7892_48ea_42dd_81f1_ce54fd9bc024 o )  ) ) ( type_af67aae8_afe5_40eb_a736_e5bca8f5edc3_Class33 ( obj_49fa7892_48ea_42dd_81f1_ce54fd9bc024 o )  ) ) ( type_af67aae8_afe5_40eb_a736_e5bca8f5edc3_Class22 ( obj_49fa7892_48ea_42dd_81f1_ce54fd9bc024 o )  ) ) ( type_af67aae8_afe5_40eb_a736_e5bca8f5edc3_Class39 ( obj_49fa7892_48ea_42dd_81f1_ce54fd9bc024 o )  ) )):named c8))
(assert (! (exists ((o Int)) ( type_af67aae8_afe5_40eb_a736_e5bca8f5edc3_Class17 ( obj_49fa7892_48ea_42dd_81f1_ce54fd9bc024 o )  ) ):named c9))
(assert (! (exists ((o Int)) (and (and (and ( type_af67aae8_afe5_40eb_a736_e5bca8f5edc3_Class18 ( obj_49fa7892_48ea_42dd_81f1_ce54fd9bc024 o )  )  ( type_af67aae8_afe5_40eb_a736_e5bca8f5edc3_Class25 ( obj_49fa7892_48ea_42dd_81f1_ce54fd9bc024 o )  ) ) ( type_af67aae8_afe5_40eb_a736_e5bca8f5edc3_Class24 ( obj_49fa7892_48ea_42dd_81f1_ce54fd9bc024 o )  ) ) ( type_af67aae8_afe5_40eb_a736_e5bca8f5edc3_Class39 ( obj_49fa7892_48ea_42dd_81f1_ce54fd9bc024 o )  ) )):named c10))
(assert (! (exists ((o Int)) (and (and (and (and (and (and (and (and (and ( type_af67aae8_afe5_40eb_a736_e5bca8f5edc3_Class19 ( obj_49fa7892_48ea_42dd_81f1_ce54fd9bc024 o )  )  ( type_af67aae8_afe5_40eb_a736_e5bca8f5edc3_Class45 ( obj_49fa7892_48ea_42dd_81f1_ce54fd9bc024 o )  ) ) ( type_af67aae8_afe5_40eb_a736_e5bca8f5edc3_Class12 ( obj_49fa7892_48ea_42dd_81f1_ce54fd9bc024 o )  ) ) ( type_af67aae8_afe5_40eb_a736_e5bca8f5edc3_Class55 ( obj_49fa7892_48ea_42dd_81f1_ce54fd9bc024 o )  ) ) ( type_af67aae8_afe5_40eb_a736_e5bca8f5edc3_Class33 ( obj_49fa7892_48ea_42dd_81f1_ce54fd9bc024 o )  ) ) ( type_af67aae8_afe5_40eb_a736_e5bca8f5edc3_Class22 ( obj_49fa7892_48ea_42dd_81f1_ce54fd9bc024 o )  ) ) ( type_af67aae8_afe5_40eb_a736_e5bca8f5edc3_Class29 ( obj_49fa7892_48ea_42dd_81f1_ce54fd9bc024 o )  ) ) ( type_af67aae8_afe5_40eb_a736_e5bca8f5edc3_Class39 ( obj_49fa7892_48ea_42dd_81f1_ce54fd9bc024 o )  ) ) ( type_af67aae8_afe5_40eb_a736_e5bca8f5edc3_Class50 ( obj_49fa7892_48ea_42dd_81f1_ce54fd9bc024 o )  ) ) ( type_af67aae8_afe5_40eb_a736_e5bca8f5edc3_Class41 ( obj_49fa7892_48ea_42dd_81f1_ce54fd9bc024 o )  ) )):named c11))
(assert (! (exists ((o Int)) ( type_af67aae8_afe5_40eb_a736_e5bca8f5edc3_Class2 ( obj_49fa7892_48ea_42dd_81f1_ce54fd9bc024 o )  ) ):named c12))
(assert (! (exists ((o Int)) ( type_af67aae8_afe5_40eb_a736_e5bca8f5edc3_Class20 ( obj_49fa7892_48ea_42dd_81f1_ce54fd9bc024 o )  ) ):named c13))
(assert (! (exists ((o Int)) (and (and (and (and (and (and (and (and (and ( type_af67aae8_afe5_40eb_a736_e5bca8f5edc3_Class21 ( obj_49fa7892_48ea_42dd_81f1_ce54fd9bc024 o )  )  ( type_af67aae8_afe5_40eb_a736_e5bca8f5edc3_Class45 ( obj_49fa7892_48ea_42dd_81f1_ce54fd9bc024 o )  ) ) ( type_af67aae8_afe5_40eb_a736_e5bca8f5edc3_Class12 ( obj_49fa7892_48ea_42dd_81f1_ce54fd9bc024 o )  ) ) ( type_af67aae8_afe5_40eb_a736_e5bca8f5edc3_Class33 ( obj_49fa7892_48ea_42dd_81f1_ce54fd9bc024 o )  ) ) ( type_af67aae8_afe5_40eb_a736_e5bca8f5edc3_Class22 ( obj_49fa7892_48ea_42dd_81f1_ce54fd9bc024 o )  ) ) ( type_af67aae8_afe5_40eb_a736_e5bca8f5edc3_Class16 ( obj_49fa7892_48ea_42dd_81f1_ce54fd9bc024 o )  ) ) ( type_af67aae8_afe5_40eb_a736_e5bca8f5edc3_Class29 ( obj_49fa7892_48ea_42dd_81f1_ce54fd9bc024 o )  ) ) ( type_af67aae8_afe5_40eb_a736_e5bca8f5edc3_Class39 ( obj_49fa7892_48ea_42dd_81f1_ce54fd9bc024 o )  ) ) ( type_af67aae8_afe5_40eb_a736_e5bca8f5edc3_Class41 ( obj_49fa7892_48ea_42dd_81f1_ce54fd9bc024 o )  ) ) ( type_af67aae8_afe5_40eb_a736_e5bca8f5edc3_Class51 ( obj_49fa7892_48ea_42dd_81f1_ce54fd9bc024 o )  ) )):named c14))
(assert (! (exists ((o Int)) (and ( type_af67aae8_afe5_40eb_a736_e5bca8f5edc3_Class22 ( obj_49fa7892_48ea_42dd_81f1_ce54fd9bc024 o )  )  ( type_af67aae8_afe5_40eb_a736_e5bca8f5edc3_Class39 ( obj_49fa7892_48ea_42dd_81f1_ce54fd9bc024 o )  ) )):named c15))
(assert (! (exists ((o Int)) (and (and (and (and ( type_af67aae8_afe5_40eb_a736_e5bca8f5edc3_Class23 ( obj_49fa7892_48ea_42dd_81f1_ce54fd9bc024 o )  )  ( type_af67aae8_afe5_40eb_a736_e5bca8f5edc3_Class25 ( obj_49fa7892_48ea_42dd_81f1_ce54fd9bc024 o )  ) ) ( type_af67aae8_afe5_40eb_a736_e5bca8f5edc3_Class24 ( obj_49fa7892_48ea_42dd_81f1_ce54fd9bc024 o )  ) ) ( type_af67aae8_afe5_40eb_a736_e5bca8f5edc3_Class39 ( obj_49fa7892_48ea_42dd_81f1_ce54fd9bc024 o )  ) ) ( type_af67aae8_afe5_40eb_a736_e5bca8f5edc3_Class5 ( obj_49fa7892_48ea_42dd_81f1_ce54fd9bc024 o )  ) )):named c16))
(assert (! (exists ((o Int)) (and (and ( type_af67aae8_afe5_40eb_a736_e5bca8f5edc3_Class24 ( obj_49fa7892_48ea_42dd_81f1_ce54fd9bc024 o )  )  ( type_af67aae8_afe5_40eb_a736_e5bca8f5edc3_Class25 ( obj_49fa7892_48ea_42dd_81f1_ce54fd9bc024 o )  ) ) ( type_af67aae8_afe5_40eb_a736_e5bca8f5edc3_Class39 ( obj_49fa7892_48ea_42dd_81f1_ce54fd9bc024 o )  ) )):named c17))
(assert (! (exists ((o Int)) (and ( type_af67aae8_afe5_40eb_a736_e5bca8f5edc3_Class25 ( obj_49fa7892_48ea_42dd_81f1_ce54fd9bc024 o )  )  ( type_af67aae8_afe5_40eb_a736_e5bca8f5edc3_Class39 ( obj_49fa7892_48ea_42dd_81f1_ce54fd9bc024 o )  ) )):named c18))
(assert (! (exists ((o Int)) ( type_af67aae8_afe5_40eb_a736_e5bca8f5edc3_Class26 ( obj_49fa7892_48ea_42dd_81f1_ce54fd9bc024 o )  ) ):named c19))
(assert (! (exists ((o Int)) ( type_af67aae8_afe5_40eb_a736_e5bca8f5edc3_Class27 ( obj_49fa7892_48ea_42dd_81f1_ce54fd9bc024 o )  ) ):named c20))
(assert (! (exists ((o Int)) (and (and (and (and (and (and (and ( type_af67aae8_afe5_40eb_a736_e5bca8f5edc3_Class28 ( obj_49fa7892_48ea_42dd_81f1_ce54fd9bc024 o )  )  ( type_af67aae8_afe5_40eb_a736_e5bca8f5edc3_Class45 ( obj_49fa7892_48ea_42dd_81f1_ce54fd9bc024 o )  ) ) ( type_af67aae8_afe5_40eb_a736_e5bca8f5edc3_Class12 ( obj_49fa7892_48ea_42dd_81f1_ce54fd9bc024 o )  ) ) ( type_af67aae8_afe5_40eb_a736_e5bca8f5edc3_Class33 ( obj_49fa7892_48ea_42dd_81f1_ce54fd9bc024 o )  ) ) ( type_af67aae8_afe5_40eb_a736_e5bca8f5edc3_Class22 ( obj_49fa7892_48ea_42dd_81f1_ce54fd9bc024 o )  ) ) ( type_af67aae8_afe5_40eb_a736_e5bca8f5edc3_Class29 ( obj_49fa7892_48ea_42dd_81f1_ce54fd9bc024 o )  ) ) ( type_af67aae8_afe5_40eb_a736_e5bca8f5edc3_Class39 ( obj_49fa7892_48ea_42dd_81f1_ce54fd9bc024 o )  ) ) ( type_af67aae8_afe5_40eb_a736_e5bca8f5edc3_Class41 ( obj_49fa7892_48ea_42dd_81f1_ce54fd9bc024 o )  ) )):named c21))
(assert (! (exists ((o Int)) (and (and (and (and (and (and ( type_af67aae8_afe5_40eb_a736_e5bca8f5edc3_Class29 ( obj_49fa7892_48ea_42dd_81f1_ce54fd9bc024 o )  )  ( type_af67aae8_afe5_40eb_a736_e5bca8f5edc3_Class45 ( obj_49fa7892_48ea_42dd_81f1_ce54fd9bc024 o )  ) ) ( type_af67aae8_afe5_40eb_a736_e5bca8f5edc3_Class12 ( obj_49fa7892_48ea_42dd_81f1_ce54fd9bc024 o )  ) ) ( type_af67aae8_afe5_40eb_a736_e5bca8f5edc3_Class33 ( obj_49fa7892_48ea_42dd_81f1_ce54fd9bc024 o )  ) ) ( type_af67aae8_afe5_40eb_a736_e5bca8f5edc3_Class22 ( obj_49fa7892_48ea_42dd_81f1_ce54fd9bc024 o )  ) ) ( type_af67aae8_afe5_40eb_a736_e5bca8f5edc3_Class39 ( obj_49fa7892_48ea_42dd_81f1_ce54fd9bc024 o )  ) ) ( type_af67aae8_afe5_40eb_a736_e5bca8f5edc3_Class41 ( obj_49fa7892_48ea_42dd_81f1_ce54fd9bc024 o )  ) )):named c22))
(assert (! (exists ((o Int)) (and (and (and ( type_af67aae8_afe5_40eb_a736_e5bca8f5edc3_Class3 ( obj_49fa7892_48ea_42dd_81f1_ce54fd9bc024 o )  )  ( type_af67aae8_afe5_40eb_a736_e5bca8f5edc3_Class25 ( obj_49fa7892_48ea_42dd_81f1_ce54fd9bc024 o )  ) ) ( type_af67aae8_afe5_40eb_a736_e5bca8f5edc3_Class24 ( obj_49fa7892_48ea_42dd_81f1_ce54fd9bc024 o )  ) ) ( type_af67aae8_afe5_40eb_a736_e5bca8f5edc3_Class39 ( obj_49fa7892_48ea_42dd_81f1_ce54fd9bc024 o )  ) )):named c23))
(assert (! (exists ((o Int)) (and ( type_af67aae8_afe5_40eb_a736_e5bca8f5edc3_Class30 ( obj_49fa7892_48ea_42dd_81f1_ce54fd9bc024 o )  )  ( type_af67aae8_afe5_40eb_a736_e5bca8f5edc3_Class39 ( obj_49fa7892_48ea_42dd_81f1_ce54fd9bc024 o )  ) )):named c24))
(assert (! (exists ((o Int)) (and (and (and (and (and ( type_af67aae8_afe5_40eb_a736_e5bca8f5edc3_Class31 ( obj_49fa7892_48ea_42dd_81f1_ce54fd9bc024 o )  )  ( type_af67aae8_afe5_40eb_a736_e5bca8f5edc3_Class45 ( obj_49fa7892_48ea_42dd_81f1_ce54fd9bc024 o )  ) ) ( type_af67aae8_afe5_40eb_a736_e5bca8f5edc3_Class12 ( obj_49fa7892_48ea_42dd_81f1_ce54fd9bc024 o )  ) ) ( type_af67aae8_afe5_40eb_a736_e5bca8f5edc3_Class33 ( obj_49fa7892_48ea_42dd_81f1_ce54fd9bc024 o )  ) ) ( type_af67aae8_afe5_40eb_a736_e5bca8f5edc3_Class22 ( obj_49fa7892_48ea_42dd_81f1_ce54fd9bc024 o )  ) ) ( type_af67aae8_afe5_40eb_a736_e5bca8f5edc3_Class39 ( obj_49fa7892_48ea_42dd_81f1_ce54fd9bc024 o )  ) )):named c25))
(assert (! (exists ((o Int)) ( type_af67aae8_afe5_40eb_a736_e5bca8f5edc3_Class32 ( obj_49fa7892_48ea_42dd_81f1_ce54fd9bc024 o )  ) ):named c26))
(assert (! (exists ((o Int)) (and (and ( type_af67aae8_afe5_40eb_a736_e5bca8f5edc3_Class33 ( obj_49fa7892_48ea_42dd_81f1_ce54fd9bc024 o )  )  ( type_af67aae8_afe5_40eb_a736_e5bca8f5edc3_Class22 ( obj_49fa7892_48ea_42dd_81f1_ce54fd9bc024 o )  ) ) ( type_af67aae8_afe5_40eb_a736_e5bca8f5edc3_Class39 ( obj_49fa7892_48ea_42dd_81f1_ce54fd9bc024 o )  ) )):named c27))
(assert (! (exists ((o Int)) (and (and (and ( type_af67aae8_afe5_40eb_a736_e5bca8f5edc3_Class34 ( obj_49fa7892_48ea_42dd_81f1_ce54fd9bc024 o )  )  ( type_af67aae8_afe5_40eb_a736_e5bca8f5edc3_Class25 ( obj_49fa7892_48ea_42dd_81f1_ce54fd9bc024 o )  ) ) ( type_af67aae8_afe5_40eb_a736_e5bca8f5edc3_Class24 ( obj_49fa7892_48ea_42dd_81f1_ce54fd9bc024 o )  ) ) ( type_af67aae8_afe5_40eb_a736_e5bca8f5edc3_Class39 ( obj_49fa7892_48ea_42dd_81f1_ce54fd9bc024 o )  ) )):named c28))
(assert (! (exists ((o Int)) (and (and ( type_af67aae8_afe5_40eb_a736_e5bca8f5edc3_Class35 ( obj_49fa7892_48ea_42dd_81f1_ce54fd9bc024 o )  )  ( type_af67aae8_afe5_40eb_a736_e5bca8f5edc3_Class39 ( obj_49fa7892_48ea_42dd_81f1_ce54fd9bc024 o )  ) ) ( type_af67aae8_afe5_40eb_a736_e5bca8f5edc3_Class30 ( obj_49fa7892_48ea_42dd_81f1_ce54fd9bc024 o )  ) )):named c29))
(assert (! (exists ((o Int)) ( type_af67aae8_afe5_40eb_a736_e5bca8f5edc3_Class36 ( obj_49fa7892_48ea_42dd_81f1_ce54fd9bc024 o )  ) ):named c30))
(assert (! (exists ((o Int)) ( type_af67aae8_afe5_40eb_a736_e5bca8f5edc3_Class37 ( obj_49fa7892_48ea_42dd_81f1_ce54fd9bc024 o )  ) ):named c31))
(assert (! (exists ((o Int)) ( type_af67aae8_afe5_40eb_a736_e5bca8f5edc3_Class38 ( obj_49fa7892_48ea_42dd_81f1_ce54fd9bc024 o )  ) ):named c32))
(assert (! (exists ((o Int)) ( type_af67aae8_afe5_40eb_a736_e5bca8f5edc3_Class39 ( obj_49fa7892_48ea_42dd_81f1_ce54fd9bc024 o )  ) ):named c33))
(assert (! (exists ((o Int)) ( type_af67aae8_afe5_40eb_a736_e5bca8f5edc3_Class4 ( obj_49fa7892_48ea_42dd_81f1_ce54fd9bc024 o )  ) ):named c34))
(assert (! (exists ((o Int)) (and (and (and (and (and (and (and (and (and ( type_af67aae8_afe5_40eb_a736_e5bca8f5edc3_Class40 ( obj_49fa7892_48ea_42dd_81f1_ce54fd9bc024 o )  )  ( type_af67aae8_afe5_40eb_a736_e5bca8f5edc3_Class45 ( obj_49fa7892_48ea_42dd_81f1_ce54fd9bc024 o )  ) ) ( type_af67aae8_afe5_40eb_a736_e5bca8f5edc3_Class12 ( obj_49fa7892_48ea_42dd_81f1_ce54fd9bc024 o )  ) ) ( type_af67aae8_afe5_40eb_a736_e5bca8f5edc3_Class55 ( obj_49fa7892_48ea_42dd_81f1_ce54fd9bc024 o )  ) ) ( type_af67aae8_afe5_40eb_a736_e5bca8f5edc3_Class33 ( obj_49fa7892_48ea_42dd_81f1_ce54fd9bc024 o )  ) ) ( type_af67aae8_afe5_40eb_a736_e5bca8f5edc3_Class22 ( obj_49fa7892_48ea_42dd_81f1_ce54fd9bc024 o )  ) ) ( type_af67aae8_afe5_40eb_a736_e5bca8f5edc3_Class29 ( obj_49fa7892_48ea_42dd_81f1_ce54fd9bc024 o )  ) ) ( type_af67aae8_afe5_40eb_a736_e5bca8f5edc3_Class39 ( obj_49fa7892_48ea_42dd_81f1_ce54fd9bc024 o )  ) ) ( type_af67aae8_afe5_40eb_a736_e5bca8f5edc3_Class50 ( obj_49fa7892_48ea_42dd_81f1_ce54fd9bc024 o )  ) ) ( type_af67aae8_afe5_40eb_a736_e5bca8f5edc3_Class41 ( obj_49fa7892_48ea_42dd_81f1_ce54fd9bc024 o )  ) )):named c35))
(assert (! (exists ((o Int)) (and (and (and (and (and ( type_af67aae8_afe5_40eb_a736_e5bca8f5edc3_Class41 ( obj_49fa7892_48ea_42dd_81f1_ce54fd9bc024 o )  )  ( type_af67aae8_afe5_40eb_a736_e5bca8f5edc3_Class45 ( obj_49fa7892_48ea_42dd_81f1_ce54fd9bc024 o )  ) ) ( type_af67aae8_afe5_40eb_a736_e5bca8f5edc3_Class12 ( obj_49fa7892_48ea_42dd_81f1_ce54fd9bc024 o )  ) ) ( type_af67aae8_afe5_40eb_a736_e5bca8f5edc3_Class33 ( obj_49fa7892_48ea_42dd_81f1_ce54fd9bc024 o )  ) ) ( type_af67aae8_afe5_40eb_a736_e5bca8f5edc3_Class22 ( obj_49fa7892_48ea_42dd_81f1_ce54fd9bc024 o )  ) ) ( type_af67aae8_afe5_40eb_a736_e5bca8f5edc3_Class39 ( obj_49fa7892_48ea_42dd_81f1_ce54fd9bc024 o )  ) )):named c36))
(assert (! (exists ((o Int)) (and ( type_af67aae8_afe5_40eb_a736_e5bca8f5edc3_Class42 ( obj_49fa7892_48ea_42dd_81f1_ce54fd9bc024 o )  )  ( type_af67aae8_afe5_40eb_a736_e5bca8f5edc3_Class39 ( obj_49fa7892_48ea_42dd_81f1_ce54fd9bc024 o )  ) )):named c37))
(assert (! (exists ((o Int)) ( type_af67aae8_afe5_40eb_a736_e5bca8f5edc3_Class43 ( obj_49fa7892_48ea_42dd_81f1_ce54fd9bc024 o )  ) ):named c38))
(assert (! (exists ((o Int)) (and (and (and (and (and (and (and ( type_af67aae8_afe5_40eb_a736_e5bca8f5edc3_Class44 ( obj_49fa7892_48ea_42dd_81f1_ce54fd9bc024 o )  )  ( type_af67aae8_afe5_40eb_a736_e5bca8f5edc3_Class45 ( obj_49fa7892_48ea_42dd_81f1_ce54fd9bc024 o )  ) ) ( type_af67aae8_afe5_40eb_a736_e5bca8f5edc3_Class12 ( obj_49fa7892_48ea_42dd_81f1_ce54fd9bc024 o )  ) ) ( type_af67aae8_afe5_40eb_a736_e5bca8f5edc3_Class33 ( obj_49fa7892_48ea_42dd_81f1_ce54fd9bc024 o )  ) ) ( type_af67aae8_afe5_40eb_a736_e5bca8f5edc3_Class22 ( obj_49fa7892_48ea_42dd_81f1_ce54fd9bc024 o )  ) ) ( type_af67aae8_afe5_40eb_a736_e5bca8f5edc3_Class29 ( obj_49fa7892_48ea_42dd_81f1_ce54fd9bc024 o )  ) ) ( type_af67aae8_afe5_40eb_a736_e5bca8f5edc3_Class39 ( obj_49fa7892_48ea_42dd_81f1_ce54fd9bc024 o )  ) ) ( type_af67aae8_afe5_40eb_a736_e5bca8f5edc3_Class41 ( obj_49fa7892_48ea_42dd_81f1_ce54fd9bc024 o )  ) )):named c39))
(assert (! (exists ((o Int)) (and (and (and (and ( type_af67aae8_afe5_40eb_a736_e5bca8f5edc3_Class45 ( obj_49fa7892_48ea_42dd_81f1_ce54fd9bc024 o )  )  ( type_af67aae8_afe5_40eb_a736_e5bca8f5edc3_Class12 ( obj_49fa7892_48ea_42dd_81f1_ce54fd9bc024 o )  ) ) ( type_af67aae8_afe5_40eb_a736_e5bca8f5edc3_Class33 ( obj_49fa7892_48ea_42dd_81f1_ce54fd9bc024 o )  ) ) ( type_af67aae8_afe5_40eb_a736_e5bca8f5edc3_Class22 ( obj_49fa7892_48ea_42dd_81f1_ce54fd9bc024 o )  ) ) ( type_af67aae8_afe5_40eb_a736_e5bca8f5edc3_Class39 ( obj_49fa7892_48ea_42dd_81f1_ce54fd9bc024 o )  ) )):named c40))
(assert (! (exists ((o Int)) (and (and ( type_af67aae8_afe5_40eb_a736_e5bca8f5edc3_Class46 ( obj_49fa7892_48ea_42dd_81f1_ce54fd9bc024 o )  )  ( type_af67aae8_afe5_40eb_a736_e5bca8f5edc3_Class39 ( obj_49fa7892_48ea_42dd_81f1_ce54fd9bc024 o )  ) ) ( type_af67aae8_afe5_40eb_a736_e5bca8f5edc3_Class5 ( obj_49fa7892_48ea_42dd_81f1_ce54fd9bc024 o )  ) )):named c41))
(assert (! (exists ((o Int)) ( type_af67aae8_afe5_40eb_a736_e5bca8f5edc3_Class47 ( obj_49fa7892_48ea_42dd_81f1_ce54fd9bc024 o )  ) ):named c42))
(assert (! (exists ((o Int)) (and (and (and (and (and (and (and (and (and ( type_af67aae8_afe5_40eb_a736_e5bca8f5edc3_Class48 ( obj_49fa7892_48ea_42dd_81f1_ce54fd9bc024 o )  )  ( type_af67aae8_afe5_40eb_a736_e5bca8f5edc3_Class45 ( obj_49fa7892_48ea_42dd_81f1_ce54fd9bc024 o )  ) ) ( type_af67aae8_afe5_40eb_a736_e5bca8f5edc3_Class12 ( obj_49fa7892_48ea_42dd_81f1_ce54fd9bc024 o )  ) ) ( type_af67aae8_afe5_40eb_a736_e5bca8f5edc3_Class55 ( obj_49fa7892_48ea_42dd_81f1_ce54fd9bc024 o )  ) ) ( type_af67aae8_afe5_40eb_a736_e5bca8f5edc3_Class33 ( obj_49fa7892_48ea_42dd_81f1_ce54fd9bc024 o )  ) ) ( type_af67aae8_afe5_40eb_a736_e5bca8f5edc3_Class22 ( obj_49fa7892_48ea_42dd_81f1_ce54fd9bc024 o )  ) ) ( type_af67aae8_afe5_40eb_a736_e5bca8f5edc3_Class29 ( obj_49fa7892_48ea_42dd_81f1_ce54fd9bc024 o )  ) ) ( type_af67aae8_afe5_40eb_a736_e5bca8f5edc3_Class39 ( obj_49fa7892_48ea_42dd_81f1_ce54fd9bc024 o )  ) ) ( type_af67aae8_afe5_40eb_a736_e5bca8f5edc3_Class50 ( obj_49fa7892_48ea_42dd_81f1_ce54fd9bc024 o )  ) ) ( type_af67aae8_afe5_40eb_a736_e5bca8f5edc3_Class41 ( obj_49fa7892_48ea_42dd_81f1_ce54fd9bc024 o )  ) )):named c43))
(assert (! (exists ((o Int)) (and (and (and (and (and (and (and (and (and ( type_af67aae8_afe5_40eb_a736_e5bca8f5edc3_Class49 ( obj_49fa7892_48ea_42dd_81f1_ce54fd9bc024 o )  )  ( type_af67aae8_afe5_40eb_a736_e5bca8f5edc3_Class45 ( obj_49fa7892_48ea_42dd_81f1_ce54fd9bc024 o )  ) ) ( type_af67aae8_afe5_40eb_a736_e5bca8f5edc3_Class12 ( obj_49fa7892_48ea_42dd_81f1_ce54fd9bc024 o )  ) ) ( type_af67aae8_afe5_40eb_a736_e5bca8f5edc3_Class55 ( obj_49fa7892_48ea_42dd_81f1_ce54fd9bc024 o )  ) ) ( type_af67aae8_afe5_40eb_a736_e5bca8f5edc3_Class33 ( obj_49fa7892_48ea_42dd_81f1_ce54fd9bc024 o )  ) ) ( type_af67aae8_afe5_40eb_a736_e5bca8f5edc3_Class22 ( obj_49fa7892_48ea_42dd_81f1_ce54fd9bc024 o )  ) ) ( type_af67aae8_afe5_40eb_a736_e5bca8f5edc3_Class29 ( obj_49fa7892_48ea_42dd_81f1_ce54fd9bc024 o )  ) ) ( type_af67aae8_afe5_40eb_a736_e5bca8f5edc3_Class39 ( obj_49fa7892_48ea_42dd_81f1_ce54fd9bc024 o )  ) ) ( type_af67aae8_afe5_40eb_a736_e5bca8f5edc3_Class50 ( obj_49fa7892_48ea_42dd_81f1_ce54fd9bc024 o )  ) ) ( type_af67aae8_afe5_40eb_a736_e5bca8f5edc3_Class41 ( obj_49fa7892_48ea_42dd_81f1_ce54fd9bc024 o )  ) )):named c44))
(assert (! (exists ((o Int)) (and ( type_af67aae8_afe5_40eb_a736_e5bca8f5edc3_Class5 ( obj_49fa7892_48ea_42dd_81f1_ce54fd9bc024 o )  )  ( type_af67aae8_afe5_40eb_a736_e5bca8f5edc3_Class39 ( obj_49fa7892_48ea_42dd_81f1_ce54fd9bc024 o )  ) )):named c45))
(assert (! (exists ((o Int)) (and (and (and (and (and (and (and (and ( type_af67aae8_afe5_40eb_a736_e5bca8f5edc3_Class50 ( obj_49fa7892_48ea_42dd_81f1_ce54fd9bc024 o )  )  ( type_af67aae8_afe5_40eb_a736_e5bca8f5edc3_Class45 ( obj_49fa7892_48ea_42dd_81f1_ce54fd9bc024 o )  ) ) ( type_af67aae8_afe5_40eb_a736_e5bca8f5edc3_Class12 ( obj_49fa7892_48ea_42dd_81f1_ce54fd9bc024 o )  ) ) ( type_af67aae8_afe5_40eb_a736_e5bca8f5edc3_Class55 ( obj_49fa7892_48ea_42dd_81f1_ce54fd9bc024 o )  ) ) ( type_af67aae8_afe5_40eb_a736_e5bca8f5edc3_Class33 ( obj_49fa7892_48ea_42dd_81f1_ce54fd9bc024 o )  ) ) ( type_af67aae8_afe5_40eb_a736_e5bca8f5edc3_Class22 ( obj_49fa7892_48ea_42dd_81f1_ce54fd9bc024 o )  ) ) ( type_af67aae8_afe5_40eb_a736_e5bca8f5edc3_Class29 ( obj_49fa7892_48ea_42dd_81f1_ce54fd9bc024 o )  ) ) ( type_af67aae8_afe5_40eb_a736_e5bca8f5edc3_Class39 ( obj_49fa7892_48ea_42dd_81f1_ce54fd9bc024 o )  ) ) ( type_af67aae8_afe5_40eb_a736_e5bca8f5edc3_Class41 ( obj_49fa7892_48ea_42dd_81f1_ce54fd9bc024 o )  ) )):named c46))
(assert (! (exists ((o Int)) (and (and (and (and (and (and ( type_af67aae8_afe5_40eb_a736_e5bca8f5edc3_Class51 ( obj_49fa7892_48ea_42dd_81f1_ce54fd9bc024 o )  )  ( type_af67aae8_afe5_40eb_a736_e5bca8f5edc3_Class45 ( obj_49fa7892_48ea_42dd_81f1_ce54fd9bc024 o )  ) ) ( type_af67aae8_afe5_40eb_a736_e5bca8f5edc3_Class12 ( obj_49fa7892_48ea_42dd_81f1_ce54fd9bc024 o )  ) ) ( type_af67aae8_afe5_40eb_a736_e5bca8f5edc3_Class33 ( obj_49fa7892_48ea_42dd_81f1_ce54fd9bc024 o )  ) ) ( type_af67aae8_afe5_40eb_a736_e5bca8f5edc3_Class22 ( obj_49fa7892_48ea_42dd_81f1_ce54fd9bc024 o )  ) ) ( type_af67aae8_afe5_40eb_a736_e5bca8f5edc3_Class16 ( obj_49fa7892_48ea_42dd_81f1_ce54fd9bc024 o )  ) ) ( type_af67aae8_afe5_40eb_a736_e5bca8f5edc3_Class39 ( obj_49fa7892_48ea_42dd_81f1_ce54fd9bc024 o )  ) )):named c47))
(assert (! (exists ((o Int)) (and (and (and (and (and ( type_af67aae8_afe5_40eb_a736_e5bca8f5edc3_Class52 ( obj_49fa7892_48ea_42dd_81f1_ce54fd9bc024 o )  )  ( type_af67aae8_afe5_40eb_a736_e5bca8f5edc3_Class45 ( obj_49fa7892_48ea_42dd_81f1_ce54fd9bc024 o )  ) ) ( type_af67aae8_afe5_40eb_a736_e5bca8f5edc3_Class12 ( obj_49fa7892_48ea_42dd_81f1_ce54fd9bc024 o )  ) ) ( type_af67aae8_afe5_40eb_a736_e5bca8f5edc3_Class33 ( obj_49fa7892_48ea_42dd_81f1_ce54fd9bc024 o )  ) ) ( type_af67aae8_afe5_40eb_a736_e5bca8f5edc3_Class22 ( obj_49fa7892_48ea_42dd_81f1_ce54fd9bc024 o )  ) ) ( type_af67aae8_afe5_40eb_a736_e5bca8f5edc3_Class39 ( obj_49fa7892_48ea_42dd_81f1_ce54fd9bc024 o )  ) )):named c48))
(assert (! (exists ((o Int)) ( type_af67aae8_afe5_40eb_a736_e5bca8f5edc3_Class53 ( obj_49fa7892_48ea_42dd_81f1_ce54fd9bc024 o )  ) ):named c49))
(assert (! (exists ((o Int)) ( type_af67aae8_afe5_40eb_a736_e5bca8f5edc3_Class54 ( obj_49fa7892_48ea_42dd_81f1_ce54fd9bc024 o )  ) ):named c50))
(assert (! (exists ((o Int)) (and (and (and (and (and (and (and ( type_af67aae8_afe5_40eb_a736_e5bca8f5edc3_Class55 ( obj_49fa7892_48ea_42dd_81f1_ce54fd9bc024 o )  )  ( type_af67aae8_afe5_40eb_a736_e5bca8f5edc3_Class45 ( obj_49fa7892_48ea_42dd_81f1_ce54fd9bc024 o )  ) ) ( type_af67aae8_afe5_40eb_a736_e5bca8f5edc3_Class12 ( obj_49fa7892_48ea_42dd_81f1_ce54fd9bc024 o )  ) ) ( type_af67aae8_afe5_40eb_a736_e5bca8f5edc3_Class33 ( obj_49fa7892_48ea_42dd_81f1_ce54fd9bc024 o )  ) ) ( type_af67aae8_afe5_40eb_a736_e5bca8f5edc3_Class22 ( obj_49fa7892_48ea_42dd_81f1_ce54fd9bc024 o )  ) ) ( type_af67aae8_afe5_40eb_a736_e5bca8f5edc3_Class29 ( obj_49fa7892_48ea_42dd_81f1_ce54fd9bc024 o )  ) ) ( type_af67aae8_afe5_40eb_a736_e5bca8f5edc3_Class39 ( obj_49fa7892_48ea_42dd_81f1_ce54fd9bc024 o )  ) ) ( type_af67aae8_afe5_40eb_a736_e5bca8f5edc3_Class41 ( obj_49fa7892_48ea_42dd_81f1_ce54fd9bc024 o )  ) )):named c51))
(assert (! (exists ((o Int)) ( type_af67aae8_afe5_40eb_a736_e5bca8f5edc3_Class6 ( obj_49fa7892_48ea_42dd_81f1_ce54fd9bc024 o )  ) ):named c52))
(assert (! (exists ((o Int)) (and (and (and (and (and (and (and (and (and ( type_af67aae8_afe5_40eb_a736_e5bca8f5edc3_Class7 ( obj_49fa7892_48ea_42dd_81f1_ce54fd9bc024 o )  )  ( type_af67aae8_afe5_40eb_a736_e5bca8f5edc3_Class45 ( obj_49fa7892_48ea_42dd_81f1_ce54fd9bc024 o )  ) ) ( type_af67aae8_afe5_40eb_a736_e5bca8f5edc3_Class12 ( obj_49fa7892_48ea_42dd_81f1_ce54fd9bc024 o )  ) ) ( type_af67aae8_afe5_40eb_a736_e5bca8f5edc3_Class55 ( obj_49fa7892_48ea_42dd_81f1_ce54fd9bc024 o )  ) ) ( type_af67aae8_afe5_40eb_a736_e5bca8f5edc3_Class33 ( obj_49fa7892_48ea_42dd_81f1_ce54fd9bc024 o )  ) ) ( type_af67aae8_afe5_40eb_a736_e5bca8f5edc3_Class22 ( obj_49fa7892_48ea_42dd_81f1_ce54fd9bc024 o )  ) ) ( type_af67aae8_afe5_40eb_a736_e5bca8f5edc3_Class29 ( obj_49fa7892_48ea_42dd_81f1_ce54fd9bc024 o )  ) ) ( type_af67aae8_afe5_40eb_a736_e5bca8f5edc3_Class39 ( obj_49fa7892_48ea_42dd_81f1_ce54fd9bc024 o )  ) ) ( type_af67aae8_afe5_40eb_a736_e5bca8f5edc3_Class50 ( obj_49fa7892_48ea_42dd_81f1_ce54fd9bc024 o )  ) ) ( type_af67aae8_afe5_40eb_a736_e5bca8f5edc3_Class41 ( obj_49fa7892_48ea_42dd_81f1_ce54fd9bc024 o )  ) )):named c53))
(assert (! (exists ((o Int)) (and ( type_af67aae8_afe5_40eb_a736_e5bca8f5edc3_Class8 ( obj_49fa7892_48ea_42dd_81f1_ce54fd9bc024 o )  )  ( type_af67aae8_afe5_40eb_a736_e5bca8f5edc3_Class39 ( obj_49fa7892_48ea_42dd_81f1_ce54fd9bc024 o )  ) )):named c54))
(assert (! (exists ((o Int)) ( type_af67aae8_afe5_40eb_a736_e5bca8f5edc3_Class9 ( obj_49fa7892_48ea_42dd_81f1_ce54fd9bc024 o )  ) ):named c55))

 ;end of formula 